p edges 64 1203
e 1 3
e 1 4
e 1 7
e 1 8
e 1 9
e 1 10
e 1 11
e 1 12
e 1 14
e 1 15
e 1 17
e 1 18
e 1 21
e 1 22
e 1 23
e 1 26
e 1 27
e 1 28
e 1 31
e 1 32
e 1 34
e 1 35
e 1 38
e 1 40
e 1 41
e 1 43
e 1 44
e 1 45
e 1 47
e 1 48
e 1 49
e 1 50
e 1 51
e 1 52
e 1 55
e 1 56
e 1 59
e 1 60
e 1 62
e 1 63
e 2 3
e 2 4
e 2 7
e 2 8
e 2 9
e 2 11
e 2 12
e 2 13
e 2 14
e 2 15
e 2 16
e 2 17
e 2 23
e 2 25
e 2 26
e 2 28
e 2 29
e 2 30
e 2 31
e 2 32
e 2 33
e 2 34
e 2 35
e 2 37
e 2 39
e 2 40
e 2 41
e 2 42
e 2 43
e 2 44
e 2 45
e 2 46
e 2 48
e 2 49
e 2 51
e 2 52
e 2 53
e 2 54
e 2 56
e 2 57
e 2 58
e 2 59
e 2 60
e 3 6
e 3 8
e 3 9
e 3 11
e 3 13
e 3 17
e 3 18
e 3 19
e 3 21
e 3 23
e 3 24
e 3 27
e 3 31
e 3 32
e 3 33
e 3 34
e 3 35
e 3 36
e 3 37
e 3 39
e 3 40
e 3 42
e 3 43
e 3 44
e 3 48
e 3 49
e 3 54
e 3 55
e 3 56
e 3 57
e 3 61
e 3 62
e 3 63
e 4 5
e 4 7
e 4 8
e 4 9
e 4 11
e 4 12
e 4 13
e 4 16
e 4 17
e 4 19
e 4 20
e 4 21
e 4 23
e 4 24
e 4 25
e 4 27
e 4 29
e 4 33
e 4 34
e 4 35
e 4 37
e 4 38
e 4 39
e 4 40
e 4 42
e 4 45
e 4 47
e 4 53
e 4 54
e 4 55
e 4 56
e 4 57
e 4 58
e 4 59
e 4 60
e 4 61
e 4 62
e 4 63
e 4 64
e 5 6
e 5 8
e 5 9
e 5 10
e 5 13
e 5 15
e 5 16
e 5 17
e 5 18
e 5 19
e 5 20
e 5 22
e 5 23
e 5 24
e 5 28
e 5 29
e 5 30
e 5 31
e 5 35
e 5 36
e 5 37
e 5 38
e 5 42
e 5 44
e 5 45
e 5 47
e 5 49
e 5 51
e 5 52
e 5 53
e 5 54
e 5 56
e 5 57
e 5 58
e 5 59
e 5 61
e 5 62
e 5 64
e 6 9
e 6 10
e 6 11
e 6 14
e 6 15
e 6 16
e 6 17
e 6 19
e 6 20
e 6 21
e 6 22
e 6 23
e 6 24
e 6 25
e 6 26
e 6 28
e 6 30
e 6 31
e 6 32
e 6 35
e 6 36
e 6 38
e 6 39
e 6 41
e 6 42
e 6 43
e 6 44
e 6 46
e 6 48
e 6 49
e 6 50
e 6 54
e 6 55
e 6 57
e 6 59
e 6 60
e 6 61
e 7 8
e 7 9
e 7 10
e 7 11
e 7 13
e 7 16
e 7 21
e 7 22
e 7 23
e 7 26
e 7 29
e 7 30
e 7 31
e 7 32
e 7 36
e 7 37
e 7 38
e 7 40
e 7 41
e 7 42
e 7 43
e 7 44
e 7 45
e 7 47
e 7 49
e 7 52
e 7 53
e 7 54
e 7 56
e 7 58
e 7 59
e 7 61
e 7 63
e 8 11
e 8 12
e 8 15
e 8 17
e 8 18
e 8 19
e 8 21
e 8 22
e 8 23
e 8 24
e 8 26
e 8 27
e 8 29
e 8 30
e 8 31
e 8 32
e 8 35
e 8 38
e 8 39
e 8 40
e 8 42
e 8 44
e 8 45
e 8 46
e 8 47
e 8 50
e 8 51
e 8 52
e 8 53
e 8 54
e 8 55
e 8 56
e 8 57
e 8 58
e 8 59
e 8 60
e 8 61
e 8 62
e 9 11
e 9 13
e 9 15
e 9 17
e 9 19
e 9 20
e 9 22
e 9 23
e 9 25
e 9 29
e 9 30
e 9 31
e 9 33
e 9 34
e 9 35
e 9 36
e 9 39
e 9 42
e 9 45
e 9 46
e 9 47
e 9 48
e 9 49
e 9 50
e 9 51
e 9 53
e 9 54
e 9 57
e 9 58
e 9 60
e 9 63
e 10 11
e 10 14
e 10 15
e 10 16
e 10 17
e 10 21
e 10 22
e 10 23
e 10 25
e 10 27
e 10 30
e 10 31
e 10 32
e 10 33
e 10 35
e 10 37
e 10 38
e 10 39
e 10 41
e 10 42
e 10 43
e 10 44
e 10 50
e 10 52
e 10 55
e 10 56
e 10 59
e 10 60
e 10 63
e 10 64
e 11 12
e 11 13
e 11 15
e 11 16
e 11 17
e 11 18
e 11 20
e 11 23
e 11 24
e 11 26
e 11 27
e 11 28
e 11 29
e 11 31
e 11 32
e 11 37
e 11 38
e 11 40
e 11 41
e 11 43
e 11 44
e 11 45
e 11 46
e 11 49
e 11 50
e 11 52
e 11 53
e 11 54
e 11 55
e 11 58
e 11 59
e 11 60
e 11 61
e 11 63
e 11 64
e 12 14
e 12 17
e 12 20
e 12 22
e 12 23
e 12 31
e 12 34
e 12 37
e 12 38
e 12 40
e 12 43
e 12 45
e 12 47
e 12 48
e 12 49
e 12 50
e 12 52
e 12 53
e 12 54
e 12 58
e 12 59
e 12 60
e 12 61
e 12 62
e 12 63
e 12 64
e 13 14
e 13 15
e 13 17
e 13 20
e 13 22
e 13 23
e 13 24
e 13 26
e 13 27
e 13 30
e 13 31
e 13 32
e 13 33
e 13 37
e 13 38
e 13 43
e 13 44
e 13 45
e 13 46
e 13 47
e 13 48
e 13 49
e 13 50
e 13 52
e 13 54
e 13 55
e 13 56
e 13 57
e 13 58
e 13 59
e 13 63
e 13 64
e 14 16
e 14 17
e 14 22
e 14 23
e 14 25
e 14 27
e 14 28
e 14 29
e 14 30
e 14 33
e 14 35
e 14 36
e 14 39
e 14 40
e 14 41
e 14 42
e 14 44
e 14 45
e 14 46
e 14 47
e 14 48
e 14 49
e 14 50
e 14 51
e 14 55
e 14 60
e 14 61
e 14 64
e 15 16
e 15 17
e 15 18
e 15 19
e 15 21
e 15 22
e 15 24
e 15 26
e 15 27
e 15 28
e 15 32
e 15 34
e 15 35
e 15 36
e 15 37
e 15 43
e 15 44
e 15 47
e 15 51
e 15 52
e 15 57
e 15 58
e 15 61
e 15 62
e 15 63
e 16 18
e 16 20
e 16 21
e 16 22
e 16 24
e 16 26
e 16 30
e 16 31
e 16 33
e 16 34
e 16 35
e 16 36
e 16 40
e 16 41
e 16 44
e 16 45
e 16 46
e 16 48
e 16 50
e 16 53
e 16 54
e 16 55
e 16 56
e 16 57
e 16 59
e 16 60
e 16 61
e 16 63
e 16 64
e 17 19
e 17 20
e 17 21
e 17 22
e 17 24
e 17 29
e 17 30
e 17 32
e 17 33
e 17 37
e 17 38
e 17 40
e 17 41
e 17 42
e 17 43
e 17 44
e 17 45
e 17 46
e 17 47
e 17 48
e 17 49
e 17 53
e 17 54
e 17 55
e 17 57
e 17 58
e 17 59
e 17 60
e 17 61
e 17 62
e 17 64
e 18 19
e 18 20
e 18 21
e 18 22
e 18 23
e 18 24
e 18 27
e 18 28
e 18 29
e 18 32
e 18 35
e 18 37
e 18 38
e 18 39
e 18 40
e 18 42
e 18 43
e 18 44
e 18 46
e 18 47
e 18 49
e 18 50
e 18 51
e 18 54
e 18 55
e 18 56
e 18 59
e 18 60
e 18 62
e 18 64
e 19 22
e 19 24
e 19 25
e 19 26
e 19 28
e 19 29
e 19 32
e 19 34
e 19 35
e 19 42
e 19 45
e 19 46
e 19 47
e 19 48
e 19 51
e 19 54
e 19 55
e 19 56
e 19 58
e 19 63
e 19 64
e 20 21
e 20 23
e 20 24
e 20 26
e 20 27
e 20 28
e 20 29
e 20 30
e 20 33
e 20 34
e 20 35
e 20 37
e 20 39
e 20 41
e 20 42
e 20 43
e 20 44
e 20 45
e 20 46
e 20 47
e 20 49
e 20 53
e 20 56
e 20 60
e 20 61
e 21 22
e 21 25
e 21 27
e 21 28
e 21 29
e 21 30
e 21 31
e 21 32
e 21 34
e 21 35
e 21 36
e 21 39
e 21 40
e 21 41
e 21 42
e 21 44
e 21 45
e 21 46
e 21 49
e 21 50
e 21 51
e 21 53
e 21 54
e 21 56
e 21 59
e 21 63
e 22 23
e 22 24
e 22 27
e 22 28
e 22 29
e 22 30
e 22 31
e 22 33
e 22 34
e 22 37
e 22 38
e 22 40
e 22 43
e 22 45
e 22 46
e 22 48
e 22 51
e 22 52
e 22 53
e 22 55
e 22 57
e 22 58
e 22 59
e 23 24
e 23 29
e 23 31
e 23 32
e 23 33
e 23 34
e 23 39
e 23 40
e 23 41
e 23 42
e 23 45
e 23 46
e 23 47
e 23 48
e 23 50
e 23 51
e 23 52
e 23 53
e 23 54
e 23 56
e 23 58
e 23 59
e 23 61
e 23 62
e 23 64
e 24 27
e 24 28
e 24 30
e 24 31
e 24 35
e 24 37
e 24 38
e 24 40
e 24 41
e 24 43
e 24 46
e 24 47
e 24 48
e 24 49
e 24 50
e 24 53
e 24 54
e 24 55
e 24 59
e 24 63
e 25 26
e 25 27
e 25 28
e 25 31
e 25 32
e 25 34
e 25 35
e 25 36
e 25 37
e 25 40
e 25 41
e 25 43
e 25 45
e 25 46
e 25 47
e 25 48
e 25 49
e 25 50
e 25 51
e 25 53
e 25 56
e 25 57
e 25 58
e 25 59
e 25 60
e 25 61
e 25 62
e 25 63
e 25 64
e 26 27
e 26 30
e 26 31
e 26 32
e 26 33
e 26 34
e 26 35
e 26 36
e 26 37
e 26 39
e 26 40
e 26 41
e 26 42
e 26 43
e 26 44
e 26 48
e 26 50
e 26 51
e 26 52
e 26 53
e 26 54
e 26 55
e 26 59
e 26 60
e 26 61
e 26 64
e 27 28
e 27 29
e 27 30
e 27 31
e 27 32
e 27 35
e 27 36
e 27 37
e 27 38
e 27 40
e 27 41
e 27 42
e 27 44
e 27 48
e 27 49
e 27 52
e 27 55
e 27 56
e 27 58
e 27 61
e 27 62
e 27 63
e 28 29
e 28 30
e 28 32
e 28 33
e 28 34
e 28 36
e 28 39
e 28 40
e 28 42
e 28 44
e 28 46
e 28 49
e 28 51
e 28 52
e 28 55
e 28 57
e 28 59
e 28 60
e 28 64
e 29 31
e 29 32
e 29 33
e 29 35
e 29 36
e 29 37
e 29 38
e 29 39
e 29 41
e 29 43
e 29 47
e 29 48
e 29 49
e 29 50
e 29 51
e 29 53
e 29 54
e 29 56
e 29 59
e 29 62
e 29 63
e 30 31
e 30 34
e 30 35
e 30 36
e 30 37
e 30 38
e 30 39
e 30 40
e 30 42
e 30 44
e 30 46
e 30 48
e 30 50
e 30 51
e 30 52
e 30 54
e 30 58
e 30 63
e 30 64
e 31 35
e 31 36
e 31 37
e 31 38
e 31 39
e 31 40
e 31 41
e 31 43
e 31 45
e 31 46
e 31 48
e 31 50
e 31 51
e 31 52
e 31 57
e 31 58
e 31 59
e 31 64
e 32 33
e 32 34
e 32 37
e 32 39
e 32 40
e 32 43
e 32 44
e 32 46
e 32 47
e 32 48
e 32 51
e 32 52
e 32 54
e 32 55
e 32 56
e 32 57
e 32 60
e 32 61
e 32 62
e 32 63
e 33 34
e 33 35
e 33 36
e 33 37
e 33 38
e 33 39
e 33 43
e 33 45
e 33 46
e 33 47
e 33 51
e 33 53
e 33 54
e 33 55
e 33 56
e 33 59
e 33 60
e 33 62
e 33 63
e 33 64
e 34 35
e 34 36
e 34 37
e 34 41
e 34 42
e 34 43
e 34 46
e 34 47
e 34 48
e 34 51
e 34 53
e 34 55
e 34 56
e 34 57
e 34 58
e 34 59
e 34 62
e 34 63
e 35 37
e 35 38
e 35 40
e 35 41
e 35 42
e 35 44
e 35 45
e 35 46
e 35 47
e 35 49
e 35 50
e 35 51
e 35 53
e 35 56
e 35 57
e 35 60
e 35 62
e 36 38
e 36 40
e 36 41
e 36 43
e 36 45
e 36 46
e 36 47
e 36 50
e 36 53
e 36 54
e 36 55
e 36 56
e 36 58
e 36 59
e 36 61
e 36 63
e 36 64
e 37 39
e 37 40
e 37 46
e 37 48
e 37 49
e 37 53
e 37 55
e 37 57
e 37 60
e 37 61
e 37 62
e 37 63
e 37 64
e 38 41
e 38 42
e 38 43
e 38 44
e 38 47
e 38 48
e 38 51
e 38 52
e 38 53
e 38 54
e 38 56
e 38 57
e 38 58
e 38 60
e 38 61
e 38 62
e 38 64
e 39 40
e 39 41
e 39 42
e 39 44
e 39 47
e 39 48
e 39 49
e 39 52
e 39 53
e 39 56
e 39 57
e 39 59
e 39 60
e 39 61
e 39 62
e 39 63
e 40 42
e 40 46
e 40 48
e 40 50
e 40 52
e 40 54
e 40 56
e 40 58
e 40 59
e 40 60
e 40 61
e 40 62
e 41 42
e 41 44
e 41 46
e 41 47
e 41 49
e 41 50
e 41 51
e 41 52
e 41 55
e 41 57
e 41 58
e 41 59
e 41 61
e 41 62
e 41 63
e 42 43
e 42 44
e 42 46
e 42 48
e 42 49
e 42 52
e 42 53
e 42 54
e 42 55
e 42 57
e 42 58
e 42 59
e 42 60
e 42 61
e 42 62
e 43 45
e 43 46
e 43 48
e 43 49
e 43 51
e 43 54
e 43 55
e 43 58
e 43 60
e 44 45
e 44 47
e 44 48
e 44 49
e 44 51
e 44 52
e 44 53
e 44 54
e 44 56
e 44 58
e 44 59
e 44 62
e 44 63
e 44 64
e 45 46
e 45 48
e 45 49
e 45 50
e 45 53
e 45 54
e 45 57
e 45 58
e 45 59
e 45 60
e 45 61
e 45 63
e 45 64
e 46 51
e 46 52
e 46 55
e 46 56
e 46 58
e 46 60
e 46 63
e 46 64
e 47 48
e 47 54
e 47 55
e 47 58
e 47 60
e 47 62
e 47 64
e 48 54
e 48 56
e 48 57
e 48 58
e 48 59
e 48 60
e 48 62
e 48 63
e 48 64
e 49 50
e 49 51
e 49 53
e 49 54
e 49 55
e 49 56
e 49 57
e 49 58
e 49 59
e 49 60
e 49 61
e 49 62
e 49 63
e 50 51
e 50 52
e 50 53
e 50 55
e 50 57
e 50 58
e 50 60
e 50 62
e 50 63
e 51 52
e 51 53
e 51 54
e 51 55
e 51 56
e 51 57
e 51 58
e 51 64
e 52 53
e 52 54
e 52 57
e 52 62
e 52 64
e 53 55
e 53 56
e 53 63
e 54 55
e 54 56
e 54 57
e 54 59
e 54 64
e 55 56
e 55 58
e 55 59
e 55 60
e 55 61
e 55 64
e 56 57
e 56 58
e 56 59
e 56 63
e 56 64
e 57 58
e 57 59
e 57 60
e 57 61
e 57 62
e 57 63
e 57 64
e 58 59
e 58 60
e 58 61
e 58 64
e 59 61
e 60 61
e 60 62
e 60 64
e 61 62
e 62 64
